solution status: optimal solution found
objective value:                                   22
x38                                                 1 	(obj:1)
x39                                                 1 	(obj:1)
x43                                                 1 	(obj:1)
x45                                                 1 	(obj:1)
x46                                                 1 	(obj:1)
x48                                                 1 	(obj:1)
x51                                                 1 	(obj:1)
x52                                                 1 	(obj:1)
x54                                                 1 	(obj:1)
x55                                                 1 	(obj:1)
x56                                                 1 	(obj:1)
x57                                                 1 	(obj:1)
x59                                                 1 	(obj:1)
x60                                                 1 	(obj:1)
x61                                                 1 	(obj:1)
x63                                                 1 	(obj:1)
x64                                                 1 	(obj:1)
x65                                                 1 	(obj:1)
x67                                                 1 	(obj:1)
x68                                                 1 	(obj:1)
x89                                                 1 	(obj:1)
x91                                                 1 	(obj:1)
one.thingy.devices[0].thingy.v12_y                    9 	(obj:0)
one.thingy.devices[0].thingy.v12_z                   23 	(obj:0)
one.ctrl_s[0].flush_y                              -5 	(obj:0)
one.ctrl_s[0].flush_z                              20 	(obj:0)
one.thingy.devices[1].thingy.v12_y                    7 	(obj:0)
one.thingy.devices[1].thingy.v12_z                   24 	(obj:0)
one.thingy.devices[2].thingy.v12_y                    3 	(obj:0)
one.thingy.devices[2].thingy.v12_z                   23 	(obj:0)
$_23__3_y                                          24 	(obj:0)
$_23__3_z                                          22 	(obj:0)
one.thingy.devices[3].thingy.v12_y                   -1 	(obj:0)
one.thingy.devices[3].thingy.v12_z                   23 	(obj:0)
one.thingy.devices[2].thingy.v0_y                    3 	(obj:0)
one.thingy.devices[2].thingy.v0_z                   24 	(obj:0)
one.thingy.devices[1].thingy.v0_y                    7 	(obj:0)
one.thingy.devices[1].thingy.v0_z                   23 	(obj:0)
$_18__3_y                                           5 	(obj:0)
$_18__3_z                                          22 	(obj:0)
$_24__3_y                                         -15 	(obj:0)
$_24__3_z                                          19 	(obj:0)
one.ctrl_s[0].hole_y                               13 	(obj:0)
one.ctrl_s[0].hole_z                               21 	(obj:0)
$_21__3_y                                          21 	(obj:0)
$_21__3_z                                          21 	(obj:0)
$_19__3_y                                         -22 	(obj:0)
$_19__3_z                                          23 	(obj:0)
$_22__3_y                                          24 	(obj:0)
$_22__3_z                                          24 	(obj:0)
one.thingy.devices[0].thingy.v0_y                    9 	(obj:0)
one.thingy.devices[0].thingy.v0_z                   20 	(obj:0)
$_25__3_y                                         -19 	(obj:0)
$_25__3_z                                           5 	(obj:0)
one.thingy.devices[3].thingy.v0_y                   -1 	(obj:0)
one.thingy.devices[3].thingy.v0_z                   21 	(obj:0)
$_20__3_y                                         -25 	(obj:0)
$_20__3_z                                          21 	(obj:0)
